(set-logic QF_LIA)
(set-info :ran/ran2.smt2)
(set-info :smt-lib-version 2.0)
(declare-fun x1 () Int)
(declare-fun x2 () Int)
(declare-fun x3 () Int)
(declare-fun x4 () Int)
(declare-fun x5 () Int)
(declare-fun x6 () Int)
(declare-fun x7 () Int)
(assert (<= (+ (* 1 x1) (* (- 7) x2) (* 5 x3) (* 1 x4) (* 2 x5) (* (- 5) x6) (* (- 4) x7) ) 525))
(assert (<= (+ (* (- 7) x1) (* 0 x2) (* 2 x3) (* 3 x4) (* 1 x5) (* 7 x6) (* 8 x7) ) 206))
(assert (<= (+ (* 9 x1) (* 7 x2) (* 7 x3) (* (- 8) x4) (* (- 7) x5) (* (- 4) x6) (* (- 10) x7) ) (- 711)))
(assert (<= (+ (* (- 8) x1) (* 7 x2) (* 5 x3) (* 9 x4) (* (- 3) x5) (* 1 x6) (* (- 5) x7) ) 143))
(assert (<= (+ (* 5 x1) (* 10 x2) (* (- 4) x3) (* (- 4) x4) (* (- 8) x5) (* 0 x6) (* (- 9) x7) ) 187))
(assert (<= (+ (* (- 10) x1) (* 3 x2) (* 9 x3) (* (- 1) x4) (* (- 2) x5) (* 6 x6) (* 1 x7) ) 17))
(assert (<= (+ (* 2 x1) (* (- 3) x2) (* (- 4) x3) (* 4 x4) (* 3 x5) (* (- 6) x6) (* 10 x7) ) 668))
(assert (<= (+ (* (- 10) x1) (* 2 x2) (* 2 x3) (* (- 5) x4) (* (- 9) x5) (* 7 x6) (* (- 9) x7) ) 585))
(assert (<= (+ (* 4 x1) (* (- 5) x2) (* 10 x3) (* 5 x4) (* 6 x5) (* 9 x6) (* 8 x7) ) (- 170)))
(assert (<= (+ (* 0 x1) (* 6 x2) (* (- 10) x3) (* 8 x4) (* (- 1) x5) (* 1 x6) (* 10 x7) ) 100))
(assert (<= (+ (* 6 x1) (* (- 5) x2) (* 1 x3) (* (- 2) x4) (* (- 3) x5) (* (- 2) x6) (* (- 9) x7) ) (- 490)))
(assert (<= (+ (* 9 x1) (* 1 x2) (* 0 x3) (* 10 x4) (* (- 5) x5) (* 1 x6) (* 5 x7) ) 778))
(assert (<= (+ (* 5 x1) (* 2 x2) (* 1 x3) (* 0 x4) (* 1 x5) (* (- 1) x6) (* (- 9) x7) ) (- 689)))
(assert (<= (+ (* (- 8) x1) (* 10 x2) (* 4 x3) (* 2 x4) (* (- 1) x5) (* 3 x6) (* (- 1) x7) ) 794))
(assert (<= (+ (* 1 x1) (* 0 x2) (* 0 x3) (* 0 x4) (* 0 x5) (* 0 x6) (* 0 x7) ) 891))
(assert (<= (+ (* (- 1) x1) (* 0 x2) (* 0 x3) (* 0 x4) (* 0 x5) (* 0 x6) (* 0 x7) ) 891))
(assert (<= (+ (* 0 x1) (* 1 x2) (* 0 x3) (* 0 x4) (* 0 x5) (* 0 x6) (* 0 x7) ) 891))
(assert (<= (+ (* 0 x1) (* (- 1) x2) (* 0 x3) (* 0 x4) (* 0 x5) (* 0 x6) (* 0 x7) ) 891))
(assert (<= (+ (* 0 x1) (* 0 x2) (* 1 x3) (* 0 x4) (* 0 x5) (* 0 x6) (* 0 x7) ) 891))
(assert (<= (+ (* 0 x1) (* 0 x2) (* (- 1) x3) (* 0 x4) (* 0 x5) (* 0 x6) (* 0 x7) ) 891))
(assert (<= (+ (* 0 x1) (* 0 x2) (* 0 x3) (* 1 x4) (* 0 x5) (* 0 x6) (* 0 x7) ) 891))
(assert (<= (+ (* 0 x1) (* 0 x2) (* 0 x3) (* (- 1) x4) (* 0 x5) (* 0 x6) (* 0 x7) ) 891))
(assert (<= (+ (* 0 x1) (* 0 x2) (* 0 x3) (* 0 x4) (* 1 x5) (* 0 x6) (* 0 x7) ) 891))
(assert (<= (+ (* 0 x1) (* 0 x2) (* 0 x3) (* 0 x4) (* (- 1) x5) (* 0 x6) (* 0 x7) ) 891))
(assert (<= (+ (* 0 x1) (* 0 x2) (* 0 x3) (* 0 x4) (* 0 x5) (* 1 x6) (* 0 x7) ) 891))
(assert (<= (+ (* 0 x1) (* 0 x2) (* 0 x3) (* 0 x4) (* 0 x5) (* (- 1) x6) (* 0 x7) ) 891))
(assert (<= (+ (* 0 x1) (* 0 x2) (* 0 x3) (* 0 x4) (* 0 x5) (* 0 x6) (* 1 x7) ) 891))
(assert (<= (+ (* 0 x1) (* 0 x2) (* 0 x3) (* 0 x4) (* 0 x5) (* 0 x6) (* (- 1) x7) ) 891))
